\* Source Pyomo model name=unknown *\

min 
OBJ:
+0 ONE_VAR_CONSTANT

s.t.

c_u_c3_c(1)_:
+1 biomass(1_1)
+1 biomass(1_10)
+1 biomass(1_2)
+1 biomass(1_3)
+1 biomass(1_4)
+1 biomass(1_5)
+1 biomass(1_6)
+1 biomass(1_7)
+1 biomass(1_8)
+1 biomass(1_9)
-20000 x(1)
<= 0

c_u_c3_c(2)_:
+1 biomass(2_1)
+1 biomass(2_10)
+1 biomass(2_2)
+1 biomass(2_3)
+1 biomass(2_4)
+1 biomass(2_5)
+1 biomass(2_6)
+1 biomass(2_7)
+1 biomass(2_8)
+1 biomass(2_9)
-20000 x(2)
<= 0

c_u_c3_c(3)_:
+1 biomass(3_1)
+1 biomass(3_10)
+1 biomass(3_2)
+1 biomass(3_3)
+1 biomass(3_4)
+1 biomass(3_5)
+1 biomass(3_6)
+1 biomass(3_7)
+1 biomass(3_8)
+1 biomass(3_9)
-20000 x(3)
<= 0

c_u_c3_c(4)_:
+1 biomass(4_1)
+1 biomass(4_10)
+1 biomass(4_2)
+1 biomass(4_3)
+1 biomass(4_4)
+1 biomass(4_5)
+1 biomass(4_6)
+1 biomass(4_7)
+1 biomass(4_8)
+1 biomass(4_9)
-20000 x(4)
<= 0

c_u_c3_c(5)_:
+1 biomass(5_1)
+1 biomass(5_10)
+1 biomass(5_2)
+1 biomass(5_3)
+1 biomass(5_4)
+1 biomass(5_5)
+1 biomass(5_6)
+1 biomass(5_7)
+1 biomass(5_8)
+1 biomass(5_9)
-20000 x(5)
<= 0

c_u_c3_c(6)_:
+1 biomass(6_1)
+1 biomass(6_10)
+1 biomass(6_2)
+1 biomass(6_3)
+1 biomass(6_4)
+1 biomass(6_5)
+1 biomass(6_6)
+1 biomass(6_7)
+1 biomass(6_8)
+1 biomass(6_9)
-20000 x(6)
<= 0

c_u_c3_c(7)_:
+1 biomass(7_1)
+1 biomass(7_10)
+1 biomass(7_2)
+1 biomass(7_3)
+1 biomass(7_4)
+1 biomass(7_5)
+1 biomass(7_6)
+1 biomass(7_7)
+1 biomass(7_8)
+1 biomass(7_9)
-20000 x(7)
<= 0

c_u_c3_c(8)_:
+1 biomass(8_1)
+1 biomass(8_10)
+1 biomass(8_2)
+1 biomass(8_3)
+1 biomass(8_4)
+1 biomass(8_5)
+1 biomass(8_6)
+1 biomass(8_7)
+1 biomass(8_8)
+1 biomass(8_9)
-20000 x(8)
<= 0

c_u_c3_c(9)_:
+1 biomass(9_1)
+1 biomass(9_10)
+1 biomass(9_2)
+1 biomass(9_3)
+1 biomass(9_4)
+1 biomass(9_5)
+1 biomass(9_6)
+1 biomass(9_7)
+1 biomass(9_8)
+1 biomass(9_9)
-20000 x(9)
<= 0

c_u_c3_c(10)_:
+1 biomass(10_1)
+1 biomass(10_10)
+1 biomass(10_2)
+1 biomass(10_3)
+1 biomass(10_4)
+1 biomass(10_5)
+1 biomass(10_6)
+1 biomass(10_7)
+1 biomass(10_8)
+1 biomass(10_9)
-20000 x(10)
<= 0

c_u_c4_c(1)_:
+1 pallet(1_1)
+1 pallet(1_10)
+1 pallet(1_2)
+1 pallet(1_3)
+1 pallet(1_4)
+1 pallet(1_5)
+1 pallet(1_6)
+1 pallet(1_7)
+1 pallet(1_8)
+1 pallet(1_9)
-100000 y(1)
<= 0

c_u_c4_c(2)_:
+1 pallet(2_1)
+1 pallet(2_10)
+1 pallet(2_2)
+1 pallet(2_3)
+1 pallet(2_4)
+1 pallet(2_5)
+1 pallet(2_6)
+1 pallet(2_7)
+1 pallet(2_8)
+1 pallet(2_9)
-100000 y(2)
<= 0

c_u_c4_c(3)_:
+1 pallet(3_1)
+1 pallet(3_10)
+1 pallet(3_2)
+1 pallet(3_3)
+1 pallet(3_4)
+1 pallet(3_5)
+1 pallet(3_6)
+1 pallet(3_7)
+1 pallet(3_8)
+1 pallet(3_9)
-100000 y(3)
<= 0

c_u_c4_c(4)_:
+1 pallet(4_1)
+1 pallet(4_10)
+1 pallet(4_2)
+1 pallet(4_3)
+1 pallet(4_4)
+1 pallet(4_5)
+1 pallet(4_6)
+1 pallet(4_7)
+1 pallet(4_8)
+1 pallet(4_9)
-100000 y(4)
<= 0

c_u_c4_c(5)_:
+1 pallet(5_1)
+1 pallet(5_10)
+1 pallet(5_2)
+1 pallet(5_3)
+1 pallet(5_4)
+1 pallet(5_5)
+1 pallet(5_6)
+1 pallet(5_7)
+1 pallet(5_8)
+1 pallet(5_9)
-100000 y(5)
<= 0

c_u_c4_c(6)_:
+1 pallet(6_1)
+1 pallet(6_10)
+1 pallet(6_2)
+1 pallet(6_3)
+1 pallet(6_4)
+1 pallet(6_5)
+1 pallet(6_6)
+1 pallet(6_7)
+1 pallet(6_8)
+1 pallet(6_9)
-100000 y(6)
<= 0

c_u_c4_c(7)_:
+1 pallet(7_1)
+1 pallet(7_10)
+1 pallet(7_2)
+1 pallet(7_3)
+1 pallet(7_4)
+1 pallet(7_5)
+1 pallet(7_6)
+1 pallet(7_7)
+1 pallet(7_8)
+1 pallet(7_9)
-100000 y(7)
<= 0

c_u_c4_c(8)_:
+1 pallet(8_1)
+1 pallet(8_10)
+1 pallet(8_2)
+1 pallet(8_3)
+1 pallet(8_4)
+1 pallet(8_5)
+1 pallet(8_6)
+1 pallet(8_7)
+1 pallet(8_8)
+1 pallet(8_9)
-100000 y(8)
<= 0

c_u_c4_c(9)_:
+1 pallet(9_1)
+1 pallet(9_10)
+1 pallet(9_2)
+1 pallet(9_3)
+1 pallet(9_4)
+1 pallet(9_5)
+1 pallet(9_6)
+1 pallet(9_7)
+1 pallet(9_8)
+1 pallet(9_9)
-100000 y(9)
<= 0

c_u_c4_c(10)_:
+1 pallet(10_1)
+1 pallet(10_10)
+1 pallet(10_2)
+1 pallet(10_3)
+1 pallet(10_4)
+1 pallet(10_5)
+1 pallet(10_6)
+1 pallet(10_7)
+1 pallet(10_8)
+1 pallet(10_9)
-100000 y(10)
<= 0

c_l_c7_c_:
+1 biomass(10_1)
+1 biomass(10_10)
+1 biomass(10_2)
+1 biomass(10_3)
+1 biomass(10_4)
+1 biomass(10_5)
+1 biomass(10_6)
+1 biomass(10_7)
+1 biomass(10_8)
+1 biomass(10_9)
+1 biomass(1_1)
+1 biomass(1_10)
+1 biomass(1_2)
+1 biomass(1_3)
+1 biomass(1_4)
+1 biomass(1_5)
+1 biomass(1_6)
+1 biomass(1_7)
+1 biomass(1_8)
+1 biomass(1_9)
+1 biomass(2_1)
+1 biomass(2_10)
+1 biomass(2_2)
+1 biomass(2_3)
+1 biomass(2_4)
+1 biomass(2_5)
+1 biomass(2_6)
+1 biomass(2_7)
+1 biomass(2_8)
+1 biomass(2_9)
+1 biomass(3_1)
+1 biomass(3_10)
+1 biomass(3_2)
+1 biomass(3_3)
+1 biomass(3_4)
+1 biomass(3_5)
+1 biomass(3_6)
+1 biomass(3_7)
+1 biomass(3_8)
+1 biomass(3_9)
+1 biomass(4_1)
+1 biomass(4_10)
+1 biomass(4_2)
+1 biomass(4_3)
+1 biomass(4_4)
+1 biomass(4_5)
+1 biomass(4_6)
+1 biomass(4_7)
+1 biomass(4_8)
+1 biomass(4_9)
+1 biomass(5_1)
+1 biomass(5_10)
+1 biomass(5_2)
+1 biomass(5_3)
+1 biomass(5_4)
+1 biomass(5_5)
+1 biomass(5_6)
+1 biomass(5_7)
+1 biomass(5_8)
+1 biomass(5_9)
+1 biomass(6_1)
+1 biomass(6_10)
+1 biomass(6_2)
+1 biomass(6_3)
+1 biomass(6_4)
+1 biomass(6_5)
+1 biomass(6_6)
+1 biomass(6_7)
+1 biomass(6_8)
+1 biomass(6_9)
+1 biomass(7_1)
+1 biomass(7_10)
+1 biomass(7_2)
+1 biomass(7_3)
+1 biomass(7_4)
+1 biomass(7_5)
+1 biomass(7_6)
+1 biomass(7_7)
+1 biomass(7_8)
+1 biomass(7_9)
+1 biomass(8_1)
+1 biomass(8_10)
+1 biomass(8_2)
+1 biomass(8_3)
+1 biomass(8_4)
+1 biomass(8_5)
+1 biomass(8_6)
+1 biomass(8_7)
+1 biomass(8_8)
+1 biomass(8_9)
+1 biomass(9_1)
+1 biomass(9_10)
+1 biomass(9_2)
+1 biomass(9_3)
+1 biomass(9_4)
+1 biomass(9_5)
+1 biomass(9_6)
+1 biomass(9_7)
+1 biomass(9_8)
+1 biomass(9_9)
>= 330.44277697608959

c_u_c8_c_:
+1 biomass(10_1)
+1 biomass(10_10)
+1 biomass(10_2)
+1 biomass(10_3)
+1 biomass(10_4)
+1 biomass(10_5)
+1 biomass(10_6)
+1 biomass(10_7)
+1 biomass(10_8)
+1 biomass(10_9)
+1 biomass(1_1)
+1 biomass(1_10)
+1 biomass(1_2)
+1 biomass(1_3)
+1 biomass(1_4)
+1 biomass(1_5)
+1 biomass(1_6)
+1 biomass(1_7)
+1 biomass(1_8)
+1 biomass(1_9)
+1 biomass(2_1)
+1 biomass(2_10)
+1 biomass(2_2)
+1 biomass(2_3)
+1 biomass(2_4)
+1 biomass(2_5)
+1 biomass(2_6)
+1 biomass(2_7)
+1 biomass(2_8)
+1 biomass(2_9)
+1 biomass(3_1)
+1 biomass(3_10)
+1 biomass(3_2)
+1 biomass(3_3)
+1 biomass(3_4)
+1 biomass(3_5)
+1 biomass(3_6)
+1 biomass(3_7)
+1 biomass(3_8)
+1 biomass(3_9)
+1 biomass(4_1)
+1 biomass(4_10)
+1 biomass(4_2)
+1 biomass(4_3)
+1 biomass(4_4)
+1 biomass(4_5)
+1 biomass(4_6)
+1 biomass(4_7)
+1 biomass(4_8)
+1 biomass(4_9)
+1 biomass(5_1)
+1 biomass(5_10)
+1 biomass(5_2)
+1 biomass(5_3)
+1 biomass(5_4)
+1 biomass(5_5)
+1 biomass(5_6)
+1 biomass(5_7)
+1 biomass(5_8)
+1 biomass(5_9)
+1 biomass(6_1)
+1 biomass(6_10)
+1 biomass(6_2)
+1 biomass(6_3)
+1 biomass(6_4)
+1 biomass(6_5)
+1 biomass(6_6)
+1 biomass(6_7)
+1 biomass(6_8)
+1 biomass(6_9)
+1 biomass(7_1)
+1 biomass(7_10)
+1 biomass(7_2)
+1 biomass(7_3)
+1 biomass(7_4)
+1 biomass(7_5)
+1 biomass(7_6)
+1 biomass(7_7)
+1 biomass(7_8)
+1 biomass(7_9)
+1 biomass(8_1)
+1 biomass(8_10)
+1 biomass(8_2)
+1 biomass(8_3)
+1 biomass(8_4)
+1 biomass(8_5)
+1 biomass(8_6)
+1 biomass(8_7)
+1 biomass(8_8)
+1 biomass(8_9)
+1 biomass(9_1)
+1 biomass(9_10)
+1 biomass(9_2)
+1 biomass(9_3)
+1 biomass(9_4)
+1 biomass(9_5)
+1 biomass(9_6)
+1 biomass(9_7)
+1 biomass(9_8)
+1 biomass(9_9)
<= 0

c_e_ONE_VAR_CONSTANT: 
ONE_VAR_CONSTANT = 1.0

bounds
   0 <= pallet(1_1) <= +inf
   0 <= pallet(1_2) <= +inf
   0 <= pallet(1_3) <= +inf
   0 <= pallet(1_4) <= +inf
   0 <= pallet(1_5) <= +inf
   0 <= pallet(1_6) <= +inf
   0 <= pallet(1_7) <= +inf
   0 <= pallet(1_8) <= +inf
   0 <= pallet(1_9) <= +inf
   0 <= pallet(1_10) <= +inf
   0 <= pallet(2_1) <= +inf
   0 <= pallet(2_2) <= +inf
   0 <= pallet(2_3) <= +inf
   0 <= pallet(2_4) <= +inf
   0 <= pallet(2_5) <= +inf
   0 <= pallet(2_6) <= +inf
   0 <= pallet(2_7) <= +inf
   0 <= pallet(2_8) <= +inf
   0 <= pallet(2_9) <= +inf
   0 <= pallet(2_10) <= +inf
   0 <= pallet(3_1) <= +inf
   0 <= pallet(3_2) <= +inf
   0 <= pallet(3_3) <= +inf
   0 <= pallet(3_4) <= +inf
   0 <= pallet(3_5) <= +inf
   0 <= pallet(3_6) <= +inf
   0 <= pallet(3_7) <= +inf
   0 <= pallet(3_8) <= +inf
   0 <= pallet(3_9) <= +inf
   0 <= pallet(3_10) <= +inf
   0 <= pallet(4_1) <= +inf
   0 <= pallet(4_2) <= +inf
   0 <= pallet(4_3) <= +inf
   0 <= pallet(4_4) <= +inf
   0 <= pallet(4_5) <= +inf
   0 <= pallet(4_6) <= +inf
   0 <= pallet(4_7) <= +inf
   0 <= pallet(4_8) <= +inf
   0 <= pallet(4_9) <= +inf
   0 <= pallet(4_10) <= +inf
   0 <= pallet(5_1) <= +inf
   0 <= pallet(5_2) <= +inf
   0 <= pallet(5_3) <= +inf
   0 <= pallet(5_4) <= +inf
   0 <= pallet(5_5) <= +inf
   0 <= pallet(5_6) <= +inf
   0 <= pallet(5_7) <= +inf
   0 <= pallet(5_8) <= +inf
   0 <= pallet(5_9) <= +inf
   0 <= pallet(5_10) <= +inf
   0 <= pallet(6_1) <= +inf
   0 <= pallet(6_2) <= +inf
   0 <= pallet(6_3) <= +inf
   0 <= pallet(6_4) <= +inf
   0 <= pallet(6_5) <= +inf
   0 <= pallet(6_6) <= +inf
   0 <= pallet(6_7) <= +inf
   0 <= pallet(6_8) <= +inf
   0 <= pallet(6_9) <= +inf
   0 <= pallet(6_10) <= +inf
   0 <= pallet(7_1) <= +inf
   0 <= pallet(7_2) <= +inf
   0 <= pallet(7_3) <= +inf
   0 <= pallet(7_4) <= +inf
   0 <= pallet(7_5) <= +inf
   0 <= pallet(7_6) <= +inf
   0 <= pallet(7_7) <= +inf
   0 <= pallet(7_8) <= +inf
   0 <= pallet(7_9) <= +inf
   0 <= pallet(7_10) <= +inf
   0 <= pallet(8_1) <= +inf
   0 <= pallet(8_2) <= +inf
   0 <= pallet(8_3) <= +inf
   0 <= pallet(8_4) <= +inf
   0 <= pallet(8_5) <= +inf
   0 <= pallet(8_6) <= +inf
   0 <= pallet(8_7) <= +inf
   0 <= pallet(8_8) <= +inf
   0 <= pallet(8_9) <= +inf
   0 <= pallet(8_10) <= +inf
   0 <= pallet(9_1) <= +inf
   0 <= pallet(9_2) <= +inf
   0 <= pallet(9_3) <= +inf
   0 <= pallet(9_4) <= +inf
   0 <= pallet(9_5) <= +inf
   0 <= pallet(9_6) <= +inf
   0 <= pallet(9_7) <= +inf
   0 <= pallet(9_8) <= +inf
   0 <= pallet(9_9) <= +inf
   0 <= pallet(9_10) <= +inf
   0 <= pallet(10_1) <= +inf
   0 <= pallet(10_2) <= +inf
   0 <= pallet(10_3) <= +inf
   0 <= pallet(10_4) <= +inf
   0 <= pallet(10_5) <= +inf
   0 <= pallet(10_6) <= +inf
   0 <= pallet(10_7) <= +inf
   0 <= pallet(10_8) <= +inf
   0 <= pallet(10_9) <= +inf
   0 <= pallet(10_10) <= +inf
   0 <= biomass(1_1) <= +inf
   0 <= biomass(1_2) <= +inf
   0 <= biomass(1_3) <= +inf
   0 <= biomass(1_4) <= +inf
   0 <= biomass(1_5) <= +inf
   0 <= biomass(1_6) <= +inf
   0 <= biomass(1_7) <= +inf
   0 <= biomass(1_8) <= +inf
   0 <= biomass(1_9) <= +inf
   0 <= biomass(1_10) <= +inf
   0 <= biomass(2_1) <= +inf
   0 <= biomass(2_2) <= +inf
   0 <= biomass(2_3) <= +inf
   0 <= biomass(2_4) <= +inf
   0 <= biomass(2_5) <= +inf
   0 <= biomass(2_6) <= +inf
   0 <= biomass(2_7) <= +inf
   0 <= biomass(2_8) <= +inf
   0 <= biomass(2_9) <= +inf
   0 <= biomass(2_10) <= +inf
   0 <= biomass(3_1) <= +inf
   0 <= biomass(3_2) <= +inf
   0 <= biomass(3_3) <= +inf
   0 <= biomass(3_4) <= +inf
   0 <= biomass(3_5) <= +inf
   0 <= biomass(3_6) <= +inf
   0 <= biomass(3_7) <= +inf
   0 <= biomass(3_8) <= +inf
   0 <= biomass(3_9) <= +inf
   0 <= biomass(3_10) <= +inf
   0 <= biomass(4_1) <= +inf
   0 <= biomass(4_2) <= +inf
   0 <= biomass(4_3) <= +inf
   0 <= biomass(4_4) <= +inf
   0 <= biomass(4_5) <= +inf
   0 <= biomass(4_6) <= +inf
   0 <= biomass(4_7) <= +inf
   0 <= biomass(4_8) <= +inf
   0 <= biomass(4_9) <= +inf
   0 <= biomass(4_10) <= +inf
   0 <= biomass(5_1) <= +inf
   0 <= biomass(5_2) <= +inf
   0 <= biomass(5_3) <= +inf
   0 <= biomass(5_4) <= +inf
   0 <= biomass(5_5) <= +inf
   0 <= biomass(5_6) <= +inf
   0 <= biomass(5_7) <= +inf
   0 <= biomass(5_8) <= +inf
   0 <= biomass(5_9) <= +inf
   0 <= biomass(5_10) <= +inf
   0 <= biomass(6_1) <= +inf
   0 <= biomass(6_2) <= +inf
   0 <= biomass(6_3) <= +inf
   0 <= biomass(6_4) <= +inf
   0 <= biomass(6_5) <= +inf
   0 <= biomass(6_6) <= +inf
   0 <= biomass(6_7) <= +inf
   0 <= biomass(6_8) <= +inf
   0 <= biomass(6_9) <= +inf
   0 <= biomass(6_10) <= +inf
   0 <= biomass(7_1) <= +inf
   0 <= biomass(7_2) <= +inf
   0 <= biomass(7_3) <= +inf
   0 <= biomass(7_4) <= +inf
   0 <= biomass(7_5) <= +inf
   0 <= biomass(7_6) <= +inf
   0 <= biomass(7_7) <= +inf
   0 <= biomass(7_8) <= +inf
   0 <= biomass(7_9) <= +inf
   0 <= biomass(7_10) <= +inf
   0 <= biomass(8_1) <= +inf
   0 <= biomass(8_2) <= +inf
   0 <= biomass(8_3) <= +inf
   0 <= biomass(8_4) <= +inf
   0 <= biomass(8_5) <= +inf
   0 <= biomass(8_6) <= +inf
   0 <= biomass(8_7) <= +inf
   0 <= biomass(8_8) <= +inf
   0 <= biomass(8_9) <= +inf
   0 <= biomass(8_10) <= +inf
   0 <= biomass(9_1) <= +inf
   0 <= biomass(9_2) <= +inf
   0 <= biomass(9_3) <= +inf
   0 <= biomass(9_4) <= +inf
   0 <= biomass(9_5) <= +inf
   0 <= biomass(9_6) <= +inf
   0 <= biomass(9_7) <= +inf
   0 <= biomass(9_8) <= +inf
   0 <= biomass(9_9) <= +inf
   0 <= biomass(9_10) <= +inf
   0 <= biomass(10_1) <= +inf
   0 <= biomass(10_2) <= +inf
   0 <= biomass(10_3) <= +inf
   0 <= biomass(10_4) <= +inf
   0 <= biomass(10_5) <= +inf
   0 <= biomass(10_6) <= +inf
   0 <= biomass(10_7) <= +inf
   0 <= biomass(10_8) <= +inf
   0 <= biomass(10_9) <= +inf
   0 <= biomass(10_10) <= +inf
   0 <= x(1) <= 1
   0 <= x(2) <= 1
   0 <= x(3) <= 1
   0 <= x(4) <= 1
   0 <= x(5) <= 1
   0 <= x(6) <= 1
   0 <= x(7) <= 1
   0 <= x(8) <= 1
   0 <= x(9) <= 1
   0 <= x(10) <= 1
   0 <= y(1) <= 1
   0 <= y(2) <= 1
   0 <= y(3) <= 1
   0 <= y(4) <= 1
   0 <= y(5) <= 1
   0 <= y(6) <= 1
   0 <= y(7) <= 1
   0 <= y(8) <= 1
   0 <= y(9) <= 1
   0 <= y(10) <= 1
binary
  x(1)
  x(2)
  x(3)
  x(4)
  x(5)
  x(6)
  x(7)
  x(8)
  x(9)
  x(10)
  y(1)
  y(2)
  y(3)
  y(4)
  y(5)
  y(6)
  y(7)
  y(8)
  y(9)
  y(10)
end
